c
p cnf 32 34
17 -27 0
-24 -30 0
-10 -22 0
-21 29 0
3 -15 0
23 -31 0
13 15 0
17 4 0
29 28 0
11 -20 0
-3 -8 0
-2 -32 0
12 -16 0
23 -21 0
13 31 0
-3 17 0
-4 -15 0
-26 -20 0
-3 -24 0
-4 3 0
-20 28 0
-12 18 0
29 20 0
-7 -23 0
26 -12 0
14 24 0
-22 10 0
22 16 0
18 5 0
-2 -31 0
14 6 0
-13 -15 0
-27 -18 0
-28 -29 0
